95.5 98.5 111.5 104.5 118.5 125.5 122.5 120.5 136.5 141.5 126.5 133.5 144.5 122.5 133.5 131.5 148.5 150.5 134.5 134.5 139.5 154.5 175.5 154.5 150.5 162.5 155.5 166.5 168.5 180.5 179.5 193.5 198.5 182.5 192.5 192.5 196.5 204.5 198.5 206.5 210.5 204.5 211.5 202.5 197.5 208.5 215.5 221.5 218.5 225.5 211.5 215.5 218.5 231.5 224.5 238.5 245.5 242.5 240.5 256.5 261.5 246.5 253.5 264.5 242.5 253.5 251.5 268.5 270.5 254.5 254.5 259.5 274.5 295.5 274.5 270.5 282.5 275.5 286.5 288.5 300.5 299.5 313.5 318.5 302.5 312.5 312.5 316.5 324.5 318.5 326.5 330.5 324.5 331.5 322.5 317.5 328.5 335.5 341.5 338.5 345.5 331.5